NAME : portcgen-20-31
COMMENT : portcgen N=20, seed=31
TYPE : TSP
DIMENSION : 20
EDGE_WEIGHT_TYPE : EUC_2D
NODE_COORD_SECTION
1 -97669 131510
2 -262368 -15022
3 -77637 -215690
4 44660 98410
5 -366890 -286382
6 98330 -223513
7 263683 -220140
8 -176577 220966
9 -36841 52571
10 -436299 -165113
11 -183467 -247914
12 -179567 -75840
13 17199 -526898
14 -142518 128798
15 -40375 62002
16 -330070 261023
17 541061 170391
18 -58182 282457
19 -9428 281291
20 211957 129899
